% seed = 9908696

mint = 38;
% maxt = 104;

nActs = 22;
dur = [0,7,9,3,3,1,7,6,4,8,8,4,5,1,1,9,8,6,4,3,7,0];

nSkills = 4;
sreq = [| 0,0,0,0,
	| 0,1,1,0,
	| 0,2,3,0,
	| 2,3,0,0,
	| 3,0,0,2,
	| 2,3,0,0,
	| 0,1,3,0,
	| 0,2,3,0,
	| 3,0,3,0,
	| 2,0,2,0,
	| 0,0,3,1,
	| 0,1,3,0,
	| 1,0,2,0,
	| 0,1,0,3,
	| 0,3,0,1,
	| 0,1,3,0,
	| 1,1,0,0,
	| 0,0,1,2,
	| 2,2,0,0,
	| 0,0,3,2,
	| 0,1,1,0,
	| 0,0,0,0, |];

nResources = 10;
mastery = [| true,false,true,false,
	| true,false,false,false,
	| true,true,false,true,
	| true,true,false,false,
	| false,false,true,false,
	| false,false,true,true,
	| false,false,false,true,
	| false,false,true,true,
	| false,true,false,true,
	| true,false,true,true, |];

nPrecs = 37;
pred = [1,1,1,2,2,2,3,3,3,4,4,5,5,5,6,6,7,7,8,8,8,9,9,9,10,11,12,13,14,15,15,16,17,18,19,20,21];
succ = [2,3,4,10,12,14,5,7,8,5,6,9,11,13,17,7,10,11,21,19,13,18,14,15,15,20,18,16,20,19,21,18,19,20,22,22,22];

nUnrels = 101;
unpred = [2,2,2,2,2,2,2,2,2,2,2,3,3,3,3,4,4,5,5,5,5,5,5,6,6,6,6,6,6,6,7,7,7,7,7,7,7,7,8,8,8,8,8,8,8,9,9,9,9,9,9,10,10,10,10,10,10,10,10,11,11,11,11,11,11,11,11,11,12,12,12,12,12,12,12,13,13,13,13,13,14,14,14,14,14,14,15,15,15,15,16,16,16,17,17,17,18,18,19,19,20];
unsucc = [3,4,5,6,7,8,9,11,13,16,17,4,6,12,17,8,12,6,7,8,10,12,17,8,9,12,13,14,16,18,8,9,12,13,14,16,17,18,9,10,11,12,14,15,17,10,11,12,13,16,17,11,12,13,14,16,17,18,20,12,13,14,15,16,17,18,19,21,13,14,15,16,17,19,21,14,15,17,19,21,15,16,17,18,19,21,16,17,18,20,17,19,21,18,20,21,19,21,20,21,21];

USEFUL_RES = [{},
	{1,3,4,5,6,8,9,10},
	{1,3,4,5,6,8,9,10},
	{1,2,3,4,9,10},
	{1,2,3,4,6,7,8,9,10},
	{1,2,3,4,9,10},
	{1,3,4,5,6,8,9,10},
	{1,3,4,5,6,8,9,10},
	{1,2,3,4,5,6,8,10},
	{1,2,3,4,5,6,8,10},
	{1,3,5,6,7,8,9,10},
	{1,3,4,5,6,8,9,10},
	{1,2,3,4,5,6,8,10},
	{3,4,6,7,8,9,10},
	{3,4,6,7,8,9,10},
	{1,3,4,5,6,8,9,10},
	{1,2,3,4,9,10},
	{1,3,5,6,7,8,9,10},
	{1,2,3,4,9,10},
	{1,3,5,6,7,8,9,10},
	{1,3,4,5,6,8,9,10},
	{}];

POTENTIAL_ACT = [{2,3,4,5,6,7,8,9,10,11,12,13,16,17,18,19,20,21},
	{4,5,6,9,10,13,17,19},
	{2,3,4,5,6,7,8,9,10,11,12,13,14,15,16,17,18,19,20,21},
	{2,3,4,5,6,7,8,9,10,12,13,14,15,16,17,19,21},
	{2,3,7,8,9,10,11,12,13,16,18,20,21},
	{2,3,5,7,8,9,10,11,12,13,14,15,16,18,20,21},
	{5,11,14,15,18,20},
	{2,3,5,7,8,9,10,11,12,13,14,15,16,18,20,21},
	{2,3,4,5,6,7,8,11,12,14,15,16,17,18,19,20,21},
	{2,3,4,5,6,7,8,9,10,11,12,13,14,15,16,17,18,19,20,21}];
